benchmarks/VRPTW/TSPTW/solution/n20w160.005.txt.solution
1 5 14 2 17 4 9 11 16 15 10 19 13 8 18 21 6 20 12 7 3 
245
